qbf_easy_train/easy_3920_SAT.qdimacs
p cnf 24 59
a 1 20 5 0
e 2 3 4 6 7 8 9 10 11 12 13 14 15 16 17 18 19 21 22 23 24 0
-2 -1 0
-2 1 0
4 3 0
4 3 0
-3 -4 0
6 -4 0
6 5 0
4 -5 -6 0
9 7 0
9 -8 0
-7 8 -9 0
-9 10 -11 0
9 -10 -11 0
-9 -10 11 0
9 10 11 0
-12 -6 0
-12 -11 0
6 11 12 0
-7 -13 -14 0
7 13 -14 0
-7 13 14 0
7 -13 14 0
15 -9 0
15 3 0
9 -3 -15 0
-17 -8 0
-17 16 0
8 -16 17 0
-15 -17 -18 0
15 17 -18 0
-15 17 18 0
15 -17 18 0
-17 -3 -19 0
17 3 -19 0
-17 3 19 0
17 -3 19 0
-20 19 0
-20 3 0
-19 -3 20 0
-21 18 0
-21 -20 0
-18 20 21 0
-22 -14 0
-22 21 0
14 -21 22 0
-12 22 -23 0
12 -22 -23 0
-12 -22 23 0
12 22 23 0
-2 -23 -24 0
2 23 -24 0
-2 23 24 0
2 -23 24 0
-4 -15 6 0
-5 -3 -13 -15 -2 -12 0
-23 -9 2 0
-15 21 2 -10 -4 -9 1 0
6 8 -14 11 -13 24 0
24 0
