sat_easy_train/easy_3920_SAT.dimacs
p cnf 134 454
-3 -1 0
-3 2 0
1 -2 3 0
-6 4 0
-6 5 0
-4 -5 6 0
-3 6 -7 0
3 -6 -7 0
-3 -6 7 0
3 6 7 0
9 -6 0
9 8 0
6 -8 -9 0
-9 2 -10 0
9 -2 -10 0
-9 -2 10 0
9 2 10 0
-13 11 0
-13 -12 0
-11 12 13 0
-16 14 0
-16 15 0
-14 -15 16 0
16 17 -18 0
-16 -17 -18 0
16 -17 18 0
-16 17 18 0
-19 13 0
-19 -18 0
-13 18 19 0
-10 -19 -20 0
10 19 -20 0
-10 19 20 0
10 -19 20 0
-22 21 0
-22 -17 0
-21 17 22 0
-23 22 0
-23 16 0
-22 -16 23 0
-24 20 0
-24 23 0
-20 -23 24 0
-25 -7 0
-25 24 0
7 -24 25 0
-12 11 -27 0
12 -11 -27 0
-12 -11 27 0
12 11 27 0
28 5 0
28 -1 0
-5 1 -28 0
29 -27 0
29 -28 0
27 28 -29 0
-26 -29 -30 0
26 29 -30 0
-26 29 30 0
26 -29 30 0
-31 14 0
-31 -8 0
-14 8 31 0
1 -31 -32 0
-1 31 -32 0
1 31 32 0
-1 -31 32 0
30 32 -33 0
-30 -32 -33 0
30 -32 33 0
-30 32 33 0
25 33 -34 0
-25 -33 -34 0
25 -33 34 0
-25 33 34 0
35 12 0
35 4 0
-12 -4 -35 0
35 27 -36 0
-35 -27 -36 0
35 -27 36 0
-35 27 36 0
37 28 0
37 -9 0
-28 9 -37 0
-36 -37 -38 0
36 37 -38 0
-36 37 38 0
36 -37 38 0
-40 -14 0
-40 39 0
14 -39 40 0
39 -40 -41 0
-39 40 -41 0
39 40 41 0
-39 -40 41 0
-2 -41 -42 0
2 41 -42 0
-2 41 42 0
2 -41 42 0
43 -42 0
43 37 0
42 -37 -43 0
-44 43 0
-44 36 0
-43 -36 44 0
-45 -41 0
-45 41 0
-44 -45 -46 0
44 45 -46 0
-44 45 46 0
44 -45 46 0
47 -41 0
47 -21 0
41 21 -47 0
48 4 0
48 1 0
-4 -1 -48 0
1 -48 -49 0
-1 48 -49 0
1 48 49 0
-1 -48 49 0
-47 49 -50 0
47 -49 -50 0
-47 -49 50 0
47 49 50 0
51 46 0
51 -50 0
-46 50 -51 0
-52 38 0
-52 51 0
-38 -51 52 0
-15 -22 -53 0
15 22 -53 0
-15 22 53 0
15 -22 53 0
35 -53 -54 0
-35 53 -54 0
35 53 54 0
-35 -53 54 0
-55 -6 0
-55 -17 0
6 17 55 0
-56 -12 0
-56 53 0
12 -53 56 0
-57 55 0
-57 56 0
-55 -56 57 0
-58 54 0
-58 -57 0
-54 57 58 0
-26 -28 -59 0
26 28 -59 0
-26 28 59 0
26 -28 59 0
-60 -41 0
-60 -1 0
41 1 60 0
41 60 -61 0
-41 -60 -61 0
41 -60 61 0
-41 60 61 0
62 61 0
62 -47 0
-61 47 -62 0
59 -62 -63 0
-59 62 -63 0
59 62 63 0
-59 -62 63 0
5 -11 -64 0
-5 11 -64 0
5 11 64 0
-5 -11 64 0
-65 -64 0
-65 53 0
64 -53 65 0
-66 36 0
-66 -65 0
-36 65 66 0
67 -47 0
67 40 0
47 -40 -67 0
-68 67 0
-68 -3 0
-67 3 68 0
57 68 -69 0
-57 -68 -69 0
57 -68 69 0
-57 68 69 0
70 66 0
70 -69 0
-66 69 -70 0
71 -63 0
71 -70 0
63 70 -71 0
-72 58 0
-72 71 0
-58 -71 72 0
-73 -29 0
-73 -47 0
29 47 73 0
-75 -67 0
-75 74 0
67 -74 75 0
73 -75 -76 0
-73 75 -76 0
73 75 76 0
-73 -75 76 0
77 -64 0
77 29 0
64 -29 -77 0
-11 77 -78 0
11 -77 -78 0
-11 -77 78 0
11 77 78 0
47 -79 -80 0
-47 79 -80 0
47 79 80 0
-47 -79 80 0
-81 21 0
-81 54 0
-21 -54 81 0
81 29 -82 0
-81 -29 -82 0
81 -29 82 0
-81 29 82 0
80 82 -83 0
-80 -82 -83 0
80 -82 83 0
-80 82 83 0
-84 78 0
-84 -83 0
-78 83 84 0
-76 84 -85 0
76 -84 -85 0
-76 -84 85 0
76 84 85 0
-55 60 -86 0
55 -60 -86 0
-55 -60 86 0
55 60 86 0
87 85 0
87 86 0
-85 -86 -87 0
-89 -68 0
-89 -88 0
68 88 89 0
-60 -74 -90 0
60 74 -90 0
-60 74 90 0
60 -74 90 0
91 -16 0
91 -11 0
16 11 -91 0
-92 -90 0
-92 -91 0
90 91 92 0
93 -89 0
93 92 0
89 -92 -93 0
-94 87 0
-94 -93 0
-87 93 94 0
-72 94 -95 0
72 -94 -95 0
-72 -94 95 0
72 94 95 0
-96 52 0
-96 -95 0
-52 95 96 0
97 6 0
97 -3 0
-6 3 -97 0
-98 -31 0
-98 74 0
31 -74 98 0
-99 -98 0
-99 -12 0
98 12 99 0
100 97 0
100 99 0
-97 -99 -100 0
-101 -96 0
-101 100 0
96 -100 101 0
102 -3 0
102 -17 0
3 17 -102 0
-103 102 0
-103 8 0
-102 -8 103 0
104 -79 0
104 -16 0
79 16 -104 0
-105 -31 0
-105 -104 0
31 104 105 0
106 -103 0
106 105 0
103 -105 -106 0
107 -17 0
107 47 0
17 -47 -107 0
108 98 0
108 -107 0
-98 107 -108 0
-108 61 -109 0
108 -61 -109 0
-108 -61 109 0
108 61 109 0
-109 41 -110 0
109 -41 -110 0
-109 -41 110 0
109 41 110 0
-111 -57 0
-111 60 0
57 -60 111 0
112 110 0
112 111 0
-110 -111 -112 0
-113 -36 0
-113 21 0
36 -21 113 0
114 -48 0
114 113 0
48 -113 -114 0
-115 77 0
-115 -80 0
-77 80 115 0
-116 -115 0
-116 -47 0
115 47 116 0
117 61 0
117 6 0
-61 -6 -117 0
-116 117 -118 0
116 -117 -118 0
-116 -117 118 0
116 117 118 0
-119 114 0
-119 118 0
-114 -118 119 0
120 112 0
120 119 0
-112 -119 -120 0
106 -120 -121 0
-106 120 -121 0
106 120 121 0
-106 -120 121 0
14 -55 -122 0
-14 55 -122 0
14 55 122 0
-14 -55 122 0
11 79 -123 0
-11 -79 -123 0
11 -79 123 0
-11 79 123 0
-124 123 0
-124 22 0
-123 -22 124 0
-125 122 0
-125 124 0
-122 -124 125 0
126 53 0
126 -47 0
-53 47 -126 0
1 -21 -127 0
-1 21 -127 0
1 21 127 0
-1 -21 127 0
126 127 -128 0
-126 -127 -128 0
126 -127 128 0
-126 127 128 0
-129 -1 0
-129 -74 0
1 74 129 0
130 128 0
130 129 0
-128 -129 -130 0
-131 -125 0
-131 130 0
125 -130 131 0
-132 121 0
-132 131 0
-121 -131 132 0
-101 -132 -133 0
101 132 -133 0
-101 132 133 0
101 -132 133 0
134 34 0
134 133 0
-34 -133 -134 0
4 69 -19 -22 104 -20 0
-18 1 -64 0
8 70 -59 94 38 0
-95 -12 0
121 38 0
34 96 -68 0
98 117 58 39 0
-81 -80 -133 41 29 -88 0
52 -134 0
-13 -109 -37 -85 -86 130 0
72 89 59 0
30 -75 -78 119 45 0
47 -21 0
-96 133 73 0
57 -63 85 93 56 0
-19 -37 89 123 0
76 -107 -61 0
52 -110 130 -124 -9 0
-14 43 0
-12 71 -39 133 0
-27 -61 23 70 -67 46 0
5 52 -14 -78 -98 -108 0
-86 98 -41 -33 42 10 0
-114 21 78 42 -74 -82 0
-88 -52 -99 111 54 -8 0
-39 98 -6 -124 0
-90 -78 0
72 -33 110 46 129 -37 0
46 108 58 -20 0
5 34 0
-43 -88 69 -80 127 -48 0
87 -61 -108 34 88 22 0
-56 132 -98 128 6 0
-2 93 -84 -75 0
-114 86 0
-94 -63 -17 -122 -76 0
113 118 -26 0
-57 38 22 -87 39 0
110 -14 -4 -95 -86 0
-21 120 -42 -68 36 0
40 -8 100 -124 113 0
-120 -50 0
61 19 133 -110 -6 -117 0
-90 -118 -4 40 -52 0
44 -6 -65 -104 10 0
100 -4 19 33 -6 114 0
-113 -52 8 31 122 0
-106 6 -37 4 -26 0
132 -40 -52 39 128 0
-4 -78 -130 0
-77 127 125 30 83 0
-54 -84 130 78 110 0
-85 -28 2 -42 48 106 0
-109 87 0
90 -131 -113 -91 0
62 30 0
66 -58 -42 3 -62 0
81 8 -56 0
6 -100 23 -111 -90 0
134 0
